21
16
12 13 19 1 14 7 8 5 9 20
14
1 9 17
11 15 2 8 6 13 10 16 12 3 19 0 7 1 14 20 17
18 10 15 4 19 20 0 12 8 14 7 16 13 6 17 5 1 3
2 13
8 17 0 19 7 3
16 6 20 4 11 17 3 2 18 0 10 12 15 1 13 14 9 19 8
11 19 8 5 16 9 15 12 7 14 17 2 10 0 4
8 10 11 20 0 14
1 11 13 15 4 0 10 14 2
1 14 2 19
17 16 12 9 1 0 13
4 7 5 0 16 18 8 9 6 20 17 1 3 19 15 13
5 15 7 11
18 13 14 6 8
